p tw 97 108
1 2
2 13
3 96
4 5
5 6
6 7
7 8
7 9
8 9
9 10
10 11
11 12
12 14
13 24
14 15
15 16
16 17
17 18
18 19
18 33
19 20
20 21
21 22
21 25
22 23
23 96
24 35
25 26
26 27
27 28
28 29
29 30
30 31
31 32
32 33
33 34
34 36
35 46
36 37
37 38
38 39
39 40
39 41
40 96
41 42
42 43
43 44
44 45
45 47
46 57
47 48
48 49
49 50
49 91
50 51
50 55
51 52
52 53
53 54
54 55
54 44
55 56
56 58
57 68
58 59
59 60
60 61
61 62
62 63
63 64
64 65
64 67
65 66
66 96
67 69
68 79
69 70
70 71
71 72
72 73
73 74
74 75
75 76
76 77
77 78
78 80
79 90
80 81
80 44
81 82
82 83
83 84
83 44
84 85
85 86
86 87
86 44
87 88
88 89
89 96
90 3
90 4
91 92
92 93
93 94
94 95
95 96
96 97
